PROBLEM NAME: eil51_n10
KNAPSACK DATA TYPE: multiple strongly correlated
DIMENSION: 10
NUMBER OF ITEMS: 45
CAPACITY OF KNAPSACK: 12754
MIN SPEED: 0.1
MAX SPEED: 1
RENTING RATIO: 38.28
EDGE_WEIGHT_TYPE: CEIL_2D
NODE_COORD_SECTION	(INDEX, X, Y):
1	37	52
2	21	47
3	42	41
4	31	32
5	12	42
6	17	33
7	43	67
8	5	64
9	25	55
10	48	28
ITEMS SECTION	(INDEX, PROFIT, WEIGHT, ASSIGNED NODE NUMBER):
1	1179	979	7
2	1128	928	7
3	1092	792	7
4	1086	786	7
5	1061	861	7
6	1048	848	9
7	1014	714	9
8	1014	814	9
9	1013	813	9
10	990	790	9
11	989	789	2
12	973	773	2
13	953	753	2
14	952	752	2
15	948	748	2
16	910	710	8
17	882	682	8
18	852	652	8
19	847	647	8
20	805	605	8
21	785	585	5
22	775	575	5
23	760	560	5
24	759	559	5
25	688	488	5
26	677	477	6
27	593	393	6
28	586	386	6
29	574	374	6
30	573	373	6
31	564	364	4
32	564	264	4
33	555	355	4
34	553	353	4
35	534	234	4
36	445	245	10
37	442	242	10
38	429	229	10
39	425	225	10
40	417	217	10
41	312	112	3
42	311	111	3
43	306	106	3
44	270	70	3
45	250	50	3
